33 26 15458
26 20 24941
20 32 24202
32 5 3290
5 24 63665
24 22 45980
22 4 23621
4 40 28500
40 13 33502
13 28 6411
28 31 12751
31 30 10287
30 37 941
37 39 6534
39 25 4093
25 23 11530
23 38 7449
38 29 745
29 7 22890
7 21 17005
21 1 6578
1 10 6947
10 11 5506
11 8 17581
8 35 20127
35 2 10541
2 18 16361
18 27 12606
27 19 17774
19 16 62440
16 3 71701
3 14 30026
14 17 42391
17 15 45489
15 9 71452
9 6 47658
6 36 22446
36 34 46280
34 12 39715
12 33 3967
